c User generated cnf file
p cnf 13 54
5 6 -4 0 
-3 3 1 0 
-8 6 1 0 
6 13 -10 0 
6 -11 12 0 
-1 13 11 0 
-1 5 8 0 
9 4 -1 0 
2 -2 9 0 
1 -1 11 0 
4 1 -4 0 
-6 2 8 0 
-6 9 1 0 
-1 3 4 0 
4 4 -4 0 
2 -3 10 0 
1 10 -7 0 
11 11 -13 0 
1 8 -5 0 
8 7 -8 0 
3 -12 1 0 
13 12 -8 0 
11 -8 1 0 
-12 10 5 0 
-10 7 9 0 
11 10 -5 0 
8 -11 5 0 
11 -3 10 0 
1 -1 9 0 
8 -4 12 0 
12 3 -8 0 
6 11 -3 0 
7 13 -9 0 
13 -6 13 0 
7 12 -9 0 
-3 1 11 0 
-13 11 2 0 
4 -1 5 0 
5 8 -13 0 
5 -2 1 0 
10 -5 4 0 
11 -3 9 0 
4 10 -6 0 
12 10 -12 0 
13 -3 9 0 
13 2 -1 0 
-2 12 3 0 
2 5 -8 0 
-4 1 2 0 
5 12 -1 0 
5 10 -12 0 
4 6 -5 0 
-3 1 6 0 
-2 13 6 0 
